p cnf 108 618
-1 -2 -3 -4 -5 -10 -11 -12 -13 -18 -19 -20 -25 -26 -31 0
-1 -2 -3 -4 -6 -10 -11 -12 -14 -18 -19 -21 -25 -27 -32 0
-1 -2 -3 -4 -7 -10 -11 -12 -15 -18 -19 -22 -25 -28 -33 0
-1 -2 -3 -4 -8 -10 -11 -12 -16 -18 -19 -23 -25 -29 -34 0
-1 -2 -3 -4 -9 -10 -11 -12 -17 -18 -19 -24 -25 -30 -35 0
-1 -2 -3 -5 -6 -10 -11 -13 -14 -18 -20 -21 -26 -27 -36 0
-1 -2 -3 -5 -7 -10 -11 -13 -15 -18 -20 -22 -26 -28 -37 0
-1 -2 -3 -5 -8 -10 -11 -13 -16 -18 -20 -23 -26 -29 -38 0
-1 -2 -3 -5 -9 -10 -11 -13 -17 -18 -20 -24 -26 -30 -39 0
-1 -2 -3 -6 -7 -10 -11 -14 -15 -18 -21 -22 -27 -28 -40 0
-1 -2 -3 -6 -8 -10 -11 -14 -16 -18 -21 -23 -27 -29 -41 0
-1 -2 -3 -6 -9 -10 -11 -14 -17 -18 -21 -24 -27 -30 -42 0
-1 -2 -3 -7 -8 -10 -11 -15 -16 -18 -22 -23 -28 -29 -43 0
-1 -2 -3 -7 -9 -10 -11 -15 -17 -18 -22 -24 -28 -30 -44 0
-1 -2 -3 -8 -9 -10 -11 -16 -17 -18 -23 -24 -29 -30 -45 0
-1 -2 -4 -5 -6 -10 -12 -13 -14 -19 -20 -21 -31 -32 -36 0
-1 -2 -4 -5 -7 -10 -12 -13 -15 -19 -20 -22 -31 -33 -37 0
-1 -2 -4 -5 -8 -10 -12 -13 -16 -19 -20 -23 -31 -34 -38 0
-1 -2 -4 -5 -9 -10 -12 -13 -17 -19 -20 -24 -31 -35 -39 0
-1 -2 -4 -6 -7 -10 -12 -14 -15 -19 -21 -22 -32 -33 -40 0
-1 -2 -4 -6 -8 -10 -12 -14 -16 -19 -21 -23 -32 -34 -41 0
-1 -2 -4 -6 -9 -10 -12 -14 -17 -19 -21 -24 -32 -35 -42 0
-1 -2 -4 -7 -8 -10 -12 -15 -16 -19 -22 -23 -33 -34 -43 0
-1 -2 -4 -7 -9 -10 -12 -15 -17 -19 -22 -24 -33 -35 -44 0
-1 -2 -4 -8 -9 -10 -12 -16 -17 -19 -23 -24 -34 -35 -45 0
-1 -2 -5 -6 -7 -10 -13 -14 -15 -20 -21 -22 -36 -37 -40 0
-1 -2 -5 -6 -8 -10 -13 -14 -16 -20 -21 -23 -36 -38 -41 0
-1 -2 -5 -6 -9 -10 -13 -14 -17 -20 -21 -24 -36 -39 -42 0
-1 -2 -5 -7 -8 -10 -13 -15 -16 -20 -22 -23 -37 -38 -43 0
-1 -2 -5 -7 -9 -10 -13 -15 -17 -20 -22 -24 -37 -39 -44 0
-1 -2 -5 -8 -9 -10 -13 -16 -17 -20 -23 -24 -38 -39 -45 0
-1 -2 -6 -7 -8 -10 -14 -15 -16 -21 -22 -23 -40 -41 -43 0
-1 -2 -6 -7 -9 -10 -14 -15 -17 -21 -22 -24 -40 -42 -44 0
-1 -2 -6 -8 -9 -10 -14 -16 -17 -21 -23 -24 -41 -42 -45 0
-1 -2 -7 -8 -9 -10 -15 -16 -17 -22 -23 -24 -43 -44 -45 0
-1 -3 -4 -5 -6 -11 -12 -13 -14 -25 -26 -27 -31 -32 -36 0
-1 -3 -4 -5 -7 -11 -12 -13 -15 -25 -26 -28 -31 -33 -37 0
-1 -3 -4 -5 -8 -11 -12 -13 -16 -25 -26 -29 -31 -34 -38 0
-1 -3 -4 -5 -9 -11 -12 -13 -17 -25 -26 -30 -31 -35 -39 0
-1 -3 -4 -6 -7 -11 -12 -14 -15 -25 -27 -28 -32 -33 -40 0
-1 -3 -4 -6 -8 -11 -12 -14 -16 -25 -27 -29 -32 -34 -41 0
-1 -3 -4 -6 -9 -11 -12 -14 -17 -25 -27 -30 -32 -35 -42 0
-1 -3 -4 -7 -8 -11 -12 -15 -16 -25 -28 -29 -33 -34 -43 0
-1 -3 -4 -7 -9 -11 -12 -15 -17 -25 -28 -30 -33 -35 -44 0
-1 -3 -4 -8 -9 -11 -12 -16 -17 -25 -29 -30 -34 -35 -45 0
-1 -3 -5 -6 -7 -11 -13 -14 -15 -26 -27 -28 -36 -37 -40 0
-1 -3 -5 -6 -8 -11 -13 -14 -16 -26 -27 -29 -36 -38 -41 0
-1 -3 -5 -6 -9 -11 -13 -14 -17 -26 -27 -30 -36 -39 -42 0
-1 -3 -5 -7 -8 -11 -13 -15 -16 -26 -28 -29 -37 -38 -43 0
-1 -3 -5 -7 -9 -11 -13 -15 -17 -26 -28 -30 -37 -39 -44 0
-1 -3 -5 -8 -9 -11 -13 -16 -17 -26 -29 -30 -38 -39 -45 0
-1 -3 -6 -7 -8 -11 -14 -15 -16 -27 -28 -29 -40 -41 -43 0
-1 -3 -6 -7 -9 -11 -14 -15 -17 -27 -28 -30 -40 -42 -44 0
-1 -3 -6 -8 -9 -11 -14 -16 -17 -27 -29 -30 -41 -42 -45 0
-1 -3 -7 -8 -9 -11 -15 -16 -17 -28 -29 -30 -43 -44 -45 0
-1 -4 -5 -6 -7 -12 -13 -14 -15 -31 -32 -33 -36 -37 -40 0
-1 -4 -5 -6 -8 -12 -13 -14 -16 -31 -32 -34 -36 -38 -41 0
-1 -4 -5 -6 -9 -12 -13 -14 -17 -31 -32 -35 -36 -39 -42 0
-1 -4 -5 -7 -8 -12 -13 -15 -16 -31 -33 -34 -37 -38 -43 0
-1 -4 -5 -7 -9 -12 -13 -15 -17 -31 -33 -35 -37 -39 -44 0
-1 -4 -5 -8 -9 -12 -13 -16 -17 -31 -34 -35 -38 -39 -45 0
-1 -4 -6 -7 -8 -12 -14 -15 -16 -32 -33 -34 -40 -41 -43 0
-1 -4 -6 -7 -9 -12 -14 -15 -17 -32 -33 -35 -40 -42 -44 0
-1 -4 -6 -8 -9 -12 -14 -16 -17 -32 -34 -35 -41 -42 -45 0
-1 -4 -7 -8 -9 -12 -15 -16 -17 -33 -34 -35 -43 -44 -45 0
-1 -5 -6 -7 -8 -13 -14 -15 -16 -36 -37 -38 -40 -41 -43 0
-1 -5 -6 -7 -9 -13 -14 -15 -17 -36 -37 -39 -40 -42 -44 0
-1 -5 -6 -8 -9 -13 -14 -16 -17 -36 -38 -39 -41 -42 -45 0
-1 -5 -7 -8 -9 -13 -15 -16 -17 -37 -38 -39 -43 -44 -45 0
-1 -6 -7 -8 -9 -14 -15 -16 -17 -40 -41 -42 -43 -44 -45 0
-2 -3 -4 -5 -6 -18 -19 -20 -21 -25 -26 -27 -31 -32 -36 0
-2 -3 -4 -5 -7 -18 -19 -20 -22 -25 -26 -28 -31 -33 -37 0
-2 -3 -4 -5 -8 -18 -19 -20 -23 -25 -26 -29 -31 -34 -38 0
-2 -3 -4 -5 -9 -18 -19 -20 -24 -25 -26 -30 -31 -35 -39 0
-2 -3 -4 -6 -7 -18 -19 -21 -22 -25 -27 -28 -32 -33 -40 0
-2 -3 -4 -6 -8 -18 -19 -21 -23 -25 -27 -29 -32 -34 -41 0
-2 -3 -4 -6 -9 -18 -19 -21 -24 -25 -27 -30 -32 -35 -42 0
-2 -3 -4 -7 -8 -18 -19 -22 -23 -25 -28 -29 -33 -34 -43 0
-2 -3 -4 -7 -9 -18 -19 -22 -24 -25 -28 -30 -33 -35 -44 0
-2 -3 -4 -8 -9 -18 -19 -23 -24 -25 -29 -30 -34 -35 -45 0
-2 -3 -5 -6 -7 -18 -20 -21 -22 -26 -27 -28 -36 -37 -40 0
-2 -3 -5 -6 -8 -18 -20 -21 -23 -26 -27 -29 -36 -38 -41 0
-2 -3 -5 -6 -9 -18 -20 -21 -24 -26 -27 -30 -36 -39 -42 0
-2 -3 -5 -7 -8 -18 -20 -22 -23 -26 -28 -29 -37 -38 -43 0
-2 -3 -5 -7 -9 -18 -20 -22 -24 -26 -28 -30 -37 -39 -44 0
-2 -3 -5 -8 -9 -18 -20 -23 -24 -26 -29 -30 -38 -39 -45 0
-2 -3 -6 -7 -8 -18 -21 -22 -23 -27 -28 -29 -40 -41 -43 0
-2 -3 -6 -7 -9 -18 -21 -22 -24 -27 -28 -30 -40 -42 -44 0
-2 -3 -6 -8 -9 -18 -21 -23 -24 -27 -29 -30 -41 -42 -45 0
-2 -3 -7 -8 -9 -18 -22 -23 -24 -28 -29 -30 -43 -44 -45 0
-2 -4 -5 -6 -7 -19 -20 -21 -22 -31 -32 -33 -36 -37 -40 0
-2 -4 -5 -6 -8 -19 -20 -21 -23 -31 -32 -34 -36 -38 -41 0
-2 -4 -5 -6 -9 -19 -20 -21 -24 -31 -32 -35 -36 -39 -42 0
-2 -4 -5 -7 -8 -19 -20 -22 -23 -31 -33 -34 -37 -38 -43 0
-2 -4 -5 -7 -9 -19 -20 -22 -24 -31 -33 -35 -37 -39 -44 0
-2 -4 -5 -8 -9 -19 -20 -23 -24 -31 -34 -35 -38 -39 -45 0
-2 -4 -6 -7 -8 -19 -21 -22 -23 -32 -33 -34 -40 -41 -43 0
-2 -4 -6 -7 -9 -19 -21 -22 -24 -32 -33 -35 -40 -42 -44 0
-2 -4 -6 -8 -9 -19 -21 -23 -24 -32 -34 -35 -41 -42 -45 0
-2 -4 -7 -8 -9 -19 -22 -23 -24 -33 -34 -35 -43 -44 -45 0
-2 -5 -6 -7 -8 -20 -21 -22 -23 -36 -37 -38 -40 -41 -43 0
-2 -5 -6 -7 -9 -20 -21 -22 -24 -36 -37 -39 -40 -42 -44 0
-2 -5 -6 -8 -9 -20 -21 -23 -24 -36 -38 -39 -41 -42 -45 0
-2 -5 -7 -8 -9 -20 -22 -23 -24 -37 -38 -39 -43 -44 -45 0
-2 -6 -7 -8 -9 -21 -22 -23 -24 -40 -41 -42 -43 -44 -45 0
-3 -4 -5 -6 -7 -25 -26 -27 -28 -31 -32 -33 -36 -37 -40 0
-3 -4 -5 -6 -8 -25 -26 -27 -29 -31 -32 -34 -36 -38 -41 0
-3 -4 -5 -6 -9 -25 -26 -27 -30 -31 -32 -35 -36 -39 -42 0
-3 -4 -5 -7 -8 -25 -26 -28 -29 -31 -33 -34 -37 -38 -43 0
-3 -4 -5 -7 -9 -25 -26 -28 -30 -31 -33 -35 -37 -39 -44 0
-3 -4 -5 -8 -9 -25 -26 -29 -30 -31 -34 -35 -38 -39 -45 0
-3 -4 -6 -7 -8 -25 -27 -28 -29 -32 -33 -34 -40 -41 -43 0
-3 -4 -6 -7 -9 -25 -27 -28 -30 -32 -33 -35 -40 -42 -44 0
-3 -4 -6 -8 -9 -25 -27 -29 -30 -32 -34 -35 -41 -42 -45 0
-3 -4 -7 -8 -9 -25 -28 -29 -30 -33 -34 -35 -43 -44 -45 0
-3 -5 -6 -7 -8 -26 -27 -28 -29 -36 -37 -38 -40 -41 -43 0
-3 -5 -6 -7 -9 -26 -27 -28 -30 -36 -37 -39 -40 -42 -44 0
-3 -5 -6 -8 -9 -26 -27 -29 -30 -36 -38 -39 -41 -42 -45 0
-3 -5 -7 -8 -9 -26 -28 -29 -30 -37 -38 -39 -43 -44 -45 0
-3 -6 -7 -8 -9 -27 -28 -29 -30 -40 -41 -42 -43 -44 -45 0
-4 -5 -6 -7 -8 -31 -32 -33 -34 -36 -37 -38 -40 -41 -43 0
-4 -5 -6 -7 -9 -31 -32 -33 -35 -36 -37 -39 -40 -42 -44 0
-4 -5 -6 -8 -9 -31 -32 -34 -35 -36 -38 -39 -41 -42 -45 0
-4 -5 -7 -8 -9 -31 -33 -34 -35 -37 -38 -39 -43 -44 -45 0
-4 -6 -7 -8 -9 -32 -33 -34 -35 -40 -41 -42 -43 -44 -45 0
-5 -6 -7 -8 -9 -36 -37 -38 -39 -40 -41 -42 -43 -44 -45 0
-10 -11 -12 -13 -14 -18 -19 -20 -21 -25 -26 -27 -31 -32 -36 0
-10 -11 -12 -13 -15 -18 -19 -20 -22 -25 -26 -28 -31 -33 -37 0
-10 -11 -12 -13 -16 -18 -19 -20 -23 -25 -26 -29 -31 -34 -38 0
-10 -11 -12 -13 -17 -18 -19 -20 -24 -25 -26 -30 -31 -35 -39 0
-10 -11 -12 -14 -15 -18 -19 -21 -22 -25 -27 -28 -32 -33 -40 0
-10 -11 -12 -14 -16 -18 -19 -21 -23 -25 -27 -29 -32 -34 -41 0
-10 -11 -12 -14 -17 -18 -19 -21 -24 -25 -27 -30 -32 -35 -42 0
-10 -11 -12 -15 -16 -18 -19 -22 -23 -25 -28 -29 -33 -34 -43 0
-10 -11 -12 -15 -17 -18 -19 -22 -24 -25 -28 -30 -33 -35 -44 0
-10 -11 -12 -16 -17 -18 -19 -23 -24 -25 -29 -30 -34 -35 -45 0
-10 -11 -13 -14 -15 -18 -20 -21 -22 -26 -27 -28 -36 -37 -40 0
-10 -11 -13 -14 -16 -18 -20 -21 -23 -26 -27 -29 -36 -38 -41 0
-10 -11 -13 -14 -17 -18 -20 -21 -24 -26 -27 -30 -36 -39 -42 0
-10 -11 -13 -15 -16 -18 -20 -22 -23 -26 -28 -29 -37 -38 -43 0
-10 -11 -13 -15 -17 -18 -20 -22 -24 -26 -28 -30 -37 -39 -44 0
-10 -11 -13 -16 -17 -18 -20 -23 -24 -26 -29 -30 -38 -39 -45 0
-10 -11 -14 -15 -16 -18 -21 -22 -23 -27 -28 -29 -40 -41 -43 0
-10 -11 -14 -15 -17 -18 -21 -22 -24 -27 -28 -30 -40 -42 -44 0
-10 -11 -14 -16 -17 -18 -21 -23 -24 -27 -29 -30 -41 -42 -45 0
-10 -11 -15 -16 -17 -18 -22 -23 -24 -28 -29 -30 -43 -44 -45 0
-10 -12 -13 -14 -15 -19 -20 -21 -22 -31 -32 -33 -36 -37 -40 0
-10 -12 -13 -14 -16 -19 -20 -21 -23 -31 -32 -34 -36 -38 -41 0
-10 -12 -13 -14 -17 -19 -20 -21 -24 -31 -32 -35 -36 -39 -42 0
-10 -12 -13 -15 -16 -19 -20 -22 -23 -31 -33 -34 -37 -38 -43 0
-10 -12 -13 -15 -17 -19 -20 -22 -24 -31 -33 -35 -37 -39 -44 0
-10 -12 -13 -16 -17 -19 -20 -23 -24 -31 -34 -35 -38 -39 -45 0
-10 -12 -14 -15 -16 -19 -21 -22 -23 -32 -33 -34 -40 -41 -43 0
-10 -12 -14 -15 -17 -19 -21 -22 -24 -32 -33 -35 -40 -42 -44 0
-10 -12 -14 -16 -17 -19 -21 -23 -24 -32 -34 -35 -41 -42 -45 0
-10 -12 -15 -16 -17 -19 -22 -23 -24 -33 -34 -35 -43 -44 -45 0
-10 -13 -14 -15 -16 -20 -21 -22 -23 -36 -37 -38 -40 -41 -43 0
-10 -13 -14 -15 -17 -20 -21 -22 -24 -36 -37 -39 -40 -42 -44 0
-10 -13 -14 -16 -17 -20 -21 -23 -24 -36 -38 -39 -41 -42 -45 0
-10 -13 -15 -16 -17 -20 -22 -23 -24 -37 -38 -39 -43 -44 -45 0
-10 -14 -15 -16 -17 -21 -22 -23 -24 -40 -41 -42 -43 -44 -45 0
-11 -12 -13 -14 -15 -25 -26 -27 -28 -31 -32 -33 -36 -37 -40 0
-11 -12 -13 -14 -16 -25 -26 -27 -29 -31 -32 -34 -36 -38 -41 0
-11 -12 -13 -14 -17 -25 -26 -27 -30 -31 -32 -35 -36 -39 -42 0
-11 -12 -13 -15 -16 -25 -26 -28 -29 -31 -33 -34 -37 -38 -43 0
-11 -12 -13 -15 -17 -25 -26 -28 -30 -31 -33 -35 -37 -39 -44 0
-11 -12 -13 -16 -17 -25 -26 -29 -30 -31 -34 -35 -38 -39 -45 0
-11 -12 -14 -15 -16 -25 -27 -28 -29 -32 -33 -34 -40 -41 -43 0
-11 -12 -14 -15 -17 -25 -27 -28 -30 -32 -33 -35 -40 -42 -44 0
-11 -12 -14 -16 -17 -25 -27 -29 -30 -32 -34 -35 -41 -42 -45 0
-11 -12 -15 -16 -17 -25 -28 -29 -30 -33 -34 -35 -43 -44 -45 0
-11 -13 -14 -15 -16 -26 -27 -28 -29 -36 -37 -38 -40 -41 -43 0
-11 -13 -14 -15 -17 -26 -27 -28 -30 -36 -37 -39 -40 -42 -44 0
-11 -13 -14 -16 -17 -26 -27 -29 -30 -36 -38 -39 -41 -42 -45 0
-11 -13 -15 -16 -17 -26 -28 -29 -30 -37 -38 -39 -43 -44 -45 0
-11 -14 -15 -16 -17 -27 -28 -29 -30 -40 -41 -42 -43 -44 -45 0
-12 -13 -14 -15 -16 -31 -32 -33 -34 -36 -37 -38 -40 -41 -43 0
-12 -13 -14 -15 -17 -31 -32 -33 -35 -36 -37 -39 -40 -42 -44 0
-12 -13 -14 -16 -17 -31 -32 -34 -35 -36 -38 -39 -41 -42 -45 0
-12 -13 -15 -16 -17 -31 -33 -34 -35 -37 -38 -39 -43 -44 -45 0
-12 -14 -15 -16 -17 -32 -33 -34 -35 -40 -41 -42 -43 -44 -45 0
-13 -14 -15 -16 -17 -36 -37 -38 -39 -40 -41 -42 -43 -44 -45 0
-18 -19 -20 -21 -22 -25 -26 -27 -28 -31 -32 -33 -36 -37 -40 0
-18 -19 -20 -21 -23 -25 -26 -27 -29 -31 -32 -34 -36 -38 -41 0
-18 -19 -20 -21 -24 -25 -26 -27 -30 -31 -32 -35 -36 -39 -42 0
-18 -19 -20 -22 -23 -25 -26 -28 -29 -31 -33 -34 -37 -38 -43 0
-18 -19 -20 -22 -24 -25 -26 -28 -30 -31 -33 -35 -37 -39 -44 0
-18 -19 -20 -23 -24 -25 -26 -29 -30 -31 -34 -35 -38 -39 -45 0
-18 -19 -21 -22 -23 -25 -27 -28 -29 -32 -33 -34 -40 -41 -43 0
-18 -19 -21 -22 -24 -25 -27 -28 -30 -32 -33 -35 -40 -42 -44 0
-18 -19 -21 -23 -24 -25 -27 -29 -30 -32 -34 -35 -41 -42 -45 0
-18 -19 -22 -23 -24 -25 -28 -29 -30 -33 -34 -35 -43 -44 -45 0
-18 -20 -21 -22 -23 -26 -27 -28 -29 -36 -37 -38 -40 -41 -43 0
-18 -20 -21 -22 -24 -26 -27 -28 -30 -36 -37 -39 -40 -42 -44 0
-18 -20 -21 -23 -24 -26 -27 -29 -30 -36 -38 -39 -41 -42 -45 0
-18 -20 -22 -23 -24 -26 -28 -29 -30 -37 -38 -39 -43 -44 -45 0
-18 -21 -22 -23 -24 -27 -28 -29 -30 -40 -41 -42 -43 -44 -45 0
-19 -20 -21 -22 -23 -31 -32 -33 -34 -36 -37 -38 -40 -41 -43 0
-19 -20 -21 -22 -24 -31 -32 -33 -35 -36 -37 -39 -40 -42 -44 0
-19 -20 -21 -23 -24 -31 -32 -34 -35 -36 -38 -39 -41 -42 -45 0
-19 -20 -22 -23 -24 -31 -33 -34 -35 -37 -38 -39 -43 -44 -45 0
-19 -21 -22 -23 -24 -32 -33 -34 -35 -40 -41 -42 -43 -44 -45 0
-20 -21 -22 -23 -24 -36 -37 -38 -39 -40 -41 -42 -43 -44 -45 0
-25 -26 -27 -28 -29 -31 -32 -33 -34 -36 -37 -38 -40 -41 -43 0
-25 -26 -27 -28 -30 -31 -32 -33 -35 -36 -37 -39 -40 -42 -44 0
-25 -26 -27 -29 -30 -31 -32 -34 -35 -36 -38 -39 -41 -42 -45 0
-25 -26 -28 -29 -30 -31 -33 -34 -35 -37 -38 -39 -43 -44 -45 0
-25 -27 -28 -29 -30 -32 -33 -34 -35 -40 -41 -42 -43 -44 -45 0
-26 -27 -28 -29 -30 -36 -37 -38 -39 -40 -41 -42 -43 -44 -45 0
-31 -32 -33 -34 -35 -36 -37 -38 -39 -40 -41 -42 -43 -44 -45 0
1 2 3 10 11 18 0
1 2 4 10 12 19 0
1 2 5 10 13 20 0
1 2 6 10 14 21 0
1 2 7 10 15 22 0
1 2 8 10 16 23 0
1 2 9 10 17 24 0
1 3 4 11 12 25 0
1 3 5 11 13 26 0
1 3 6 11 14 27 0
1 3 7 11 15 28 0
1 3 8 11 16 29 0
1 3 9 11 17 30 0
1 4 5 12 13 31 0
1 4 6 12 14 32 0
1 4 7 12 15 33 0
1 4 8 12 16 34 0
1 4 9 12 17 35 0
1 5 6 13 14 36 0
1 5 7 13 15 37 0
1 5 8 13 16 38 0
1 5 9 13 17 39 0
1 6 7 14 15 40 0
1 6 8 14 16 41 0
1 6 9 14 17 42 0
1 7 8 15 16 43 0
1 7 9 15 17 44 0
1 8 9 16 17 45 0
2 3 4 18 19 25 0
2 3 5 18 20 26 0
2 3 6 18 21 27 0
2 3 7 18 22 28 0
2 3 8 18 23 29 0
2 3 9 18 24 30 0
2 4 5 19 20 31 0
2 4 6 19 21 32 0
2 4 7 19 22 33 0
2 4 8 19 23 34 0
2 4 9 19 24 35 0
2 5 6 20 21 36 0
2 5 7 20 22 37 0
2 5 8 20 23 38 0
2 5 9 20 24 39 0
2 6 7 21 22 40 0
2 6 8 21 23 41 0
2 6 9 21 24 42 0
2 7 8 22 23 43 0
2 7 9 22 24 44 0
2 8 9 23 24 45 0
3 4 5 25 26 31 0
3 4 6 25 27 32 0
3 4 7 25 28 33 0
3 4 8 25 29 34 0
3 4 9 25 30 35 0
3 5 6 26 27 36 0
3 5 7 26 28 37 0
3 5 8 26 29 38 0
3 5 9 26 30 39 0
3 6 7 27 28 40 0
3 6 8 27 29 41 0
3 6 9 27 30 42 0
3 7 8 28 29 43 0
3 7 9 28 30 44 0
3 8 9 29 30 45 0
4 5 6 31 32 36 0
4 5 7 31 33 37 0
4 5 8 31 34 38 0
4 5 9 31 35 39 0
4 6 7 32 33 40 0
4 6 8 32 34 41 0
4 6 9 32 35 42 0
4 7 8 33 34 43 0
4 7 9 33 35 44 0
4 8 9 34 35 45 0
5 6 7 36 37 40 0
5 6 8 36 38 41 0
5 6 9 36 39 42 0
5 7 8 37 38 43 0
5 7 9 37 39 44 0
5 8 9 38 39 45 0
6 7 8 40 41 43 0
6 7 9 40 42 44 0
6 8 9 41 42 45 0
7 8 9 43 44 45 0
10 11 12 18 19 25 0
10 11 13 18 20 26 0
10 11 14 18 21 27 0
10 11 15 18 22 28 0
10 11 16 18 23 29 0
10 11 17 18 24 30 0
10 12 13 19 20 31 0
10 12 14 19 21 32 0
10 12 15 19 22 33 0
10 12 16 19 23 34 0
10 12 17 19 24 35 0
10 13 14 20 21 36 0
10 13 15 20 22 37 0
10 13 16 20 23 38 0
10 13 17 20 24 39 0
10 14 15 21 22 40 0
10 14 16 21 23 41 0
10 14 17 21 24 42 0
10 15 16 22 23 43 0
10 15 17 22 24 44 0
10 16 17 23 24 45 0
11 12 13 25 26 31 0
11 12 14 25 27 32 0
11 12 15 25 28 33 0
11 12 16 25 29 34 0
11 12 17 25 30 35 0
11 13 14 26 27 36 0
11 13 15 26 28 37 0
11 13 16 26 29 38 0
11 13 17 26 30 39 0
11 14 15 27 28 40 0
11 14 16 27 29 41 0
11 14 17 27 30 42 0
11 15 16 28 29 43 0
11 15 17 28 30 44 0
11 16 17 29 30 45 0
12 13 14 31 32 36 0
12 13 15 31 33 37 0
12 13 16 31 34 38 0
12 13 17 31 35 39 0
12 14 15 32 33 40 0
12 14 16 32 34 41 0
12 14 17 32 35 42 0
12 15 16 33 34 43 0
12 15 17 33 35 44 0
12 16 17 34 35 45 0
13 14 15 36 37 40 0
13 14 16 36 38 41 0
13 14 17 36 39 42 0
13 15 16 37 38 43 0
13 15 17 37 39 44 0
13 16 17 38 39 45 0
14 15 16 40 41 43 0
14 15 17 40 42 44 0
14 16 17 41 42 45 0
15 16 17 43 44 45 0
18 19 20 25 26 31 0
18 19 21 25 27 32 0
18 19 22 25 28 33 0
18 19 23 25 29 34 0
18 19 24 25 30 35 0
18 20 21 26 27 36 0
18 20 22 26 28 37 0
18 20 23 26 29 38 0
18 20 24 26 30 39 0
18 21 22 27 28 40 0
18 21 23 27 29 41 0
18 21 24 27 30 42 0
18 22 23 28 29 43 0
18 22 24 28 30 44 0
18 23 24 29 30 45 0
19 20 21 31 32 36 0
19 20 22 31 33 37 0
19 20 23 31 34 38 0
19 20 24 31 35 39 0
19 21 22 32 33 40 0
19 21 23 32 34 41 0
19 21 24 32 35 42 0
19 22 23 33 34 43 0
19 22 24 33 35 44 0
19 23 24 34 35 45 0
20 21 22 36 37 40 0
20 21 23 36 38 41 0
20 21 24 36 39 42 0
20 22 23 37 38 43 0
20 22 24 37 39 44 0
20 23 24 38 39 45 0
21 22 23 40 41 43 0
21 22 24 40 42 44 0
21 23 24 41 42 45 0
22 23 24 43 44 45 0
25 26 27 31 32 36 0
25 26 28 31 33 37 0
25 26 29 31 34 38 0
25 26 30 31 35 39 0
25 27 28 32 33 40 0
25 27 29 32 34 41 0
25 27 30 32 35 42 0
25 28 29 33 34 43 0
25 28 30 33 35 44 0
25 29 30 34 35 45 0
26 27 28 36 37 40 0
26 27 29 36 38 41 0
26 27 30 36 39 42 0
26 28 29 37 38 43 0
26 28 30 37 39 44 0
26 29 30 38 39 45 0
27 28 29 40 41 43 0
27 28 30 40 42 44 0
27 29 30 41 42 45 0
28 29 30 43 44 45 0
31 32 33 36 37 40 0
31 32 34 36 38 41 0
31 32 35 36 39 42 0
31 33 34 37 38 43 0
31 33 35 37 39 44 0
31 34 35 38 39 45 0
32 33 34 40 41 43 0
32 33 35 40 42 44 0
32 34 35 41 42 45 0
33 34 35 43 44 45 0
36 37 38 40 41 43 0
36 37 39 40 42 44 0
36 38 39 41 42 45 0
37 38 39 43 44 45 0
40 41 42 43 44 45 0
-108 -39 44 0
43 -107 108 0
-107 -38 43 0
-106 -36 40 0
7 -105 106 0
-105 -5 7 0
-33 -104 105 0
-104 -33 31 0
28 -103 104 0
-102 -13 15 0
-41 -99 100 0
43 -99 100 0
37 -98 99 0
33 -97 98 0
-97 -32 33 0
-27 -96 97 0
28 -96 97 0
-14 -95 96 0
15 -95 96 0
-21 95 0
-21 22 0
-94 -45 43 0
42 -93 94 0
-20 102 0
-7 -92 93 0
9 -92 93 0
35 -90 91 0
-28 -89 90 0
-15 -88 89 0
17 -88 89 0
-88 -15 17 0
-87 -44 45 0
-41 -86 87 0
-8 -85 86 0
22 95 0
-33 -90 91 0
26 -62 63 0
-12 -61 62 0
25 -61 62 0
-18 -60 61 0
31 -104 105 0
-63 -14 27 0
23 81 0
27 -63 64 0
40 -86 87 0
10 46 0
-22 24 0
16 -58 59 0
-5 -105 106 0
-58 -23 16 0
-14 -63 64 0
31 -69 70 0
13 -55 56 0
-27 -70 71 0
36 -77 78 0
-93 -40 42 0
15 -57 58 0
-55 -20 13 0
6 -49 50 0
-81 -15 16 0
-48 -13 5 0
-3 -68 69 0
-19 -54 55 0
-16 -65 66 0
-49 -14 6 0
5 -48 49 0
-44 -100 101 0
-36 -98 99 0
-19 -67 68 0
5 -75 76 0
-1 3 0
-20 -55 56 0
22 102 0
-91 -37 39 0
3 60 0
-21 -56 57 0
29 -65 66 0
-13 -48 49 0
3 -46 47 0
-32 -97 98 0
-56 -21 14 0
-89 -28 30 0
12 -54 55 0
-11 -46 47 0
-90 -33 35 0
-46 -11 3 0
-101 -7 6 0
-59 -24 17 0
-22 -57 58 0
16 -81 82 0
-57 -22 15 0
-50 -15 7 0
-15 -50 51 0
-71 -28 33 0
-60 -18 10 0
-29 -72 73 0
-16 -51 52 0
-52 -17 9 0
15 -102 103 0
18 -53 54 0
30 -89 90 0
-2 10 0
-2 46 0
-98 -36 37 0
-23 -58 59 0
8 -51 52 0
-38 -107 108 0
24 88 0
-11 12 0
31 -76 77 0
-12 -47 48 0
-96 -27 28 0
29 -82 83 0
-51 -16 8 0
-69 -26 31 0
1 53 0
10 -60 61 0
-14 -49 50 0
-47 -12 4 0
-13 -62 63 0
-1 60 0
-99 -41 43 0
7 -50 51 0
38 -84 85 0
-2 1 0
-103 -26 28 0
-2 53 0
-29 -79 80 0
-53 -11 18 0
-26 -103 104 0
-54 -19 12 0
-20 22 0
-100 -44 42 0
-95 -14 15 0
-64 -15 28 0
28 -64 65 0
-15 -64 65 0
-66 -17 30 0
34 -83 84 0
12 67 0
-92 -7 9 0
-11 67 0
40 -106 107 0
-67 -19 18 0
-68 -3 4 0
4 -68 69 0
7 -85 86 0
32 -70 71 0
33 -71 72 0
-83 -33 34 0
-28 -71 72 0
-72 -29 34 0
-40 -93 94 0
34 -72 73 0
-62 -13 26 0
-15 -81 82 0
-73 -30 35 0
-74 -20 18 0
-11 13 0
14 -56 57 0
-80 -30 39 0
13 74 0
-61 -12 25 0
-11 74 0
-84 -37 38 0
-26 -69 70 0
18 -74 75 0
-13 -102 103 0
-20 -74 75 0
-22 88 0
-75 -3 5 0
-3 -75 76 0
-86 -41 40 0
-11 -53 54 0
38 -79 80 0
-76 -25 31 0
-25 -76 77 0
18 -67 68 0
-77 -27 36 0
42 -100 101 0
-27 -77 78 0
4 -47 48 0
-78 -28 37 0
37 -78 79 0
-28 -82 83 0
-28 -78 79 0
-70 -27 32 0
-79 -29 38 0
-22 23 0
39 -91 92 0
-65 -16 29 0
-22 81 0
-82 -28 29 0
-37 -91 92 0
-33 -83 84 0
-37 -84 85 0
-36 -106 107 0
-85 -8 7 0
